# TI script to switch on Gaussian tethering potential at lattice sites, third step along pathway

units metal
atom_style charge
boundary p p p

log ${lambda}.tetherOn.log
read_data ${startfile}

variable lam equal ${lambda}
variable opp equal 1-${lam}
variable et equal ${eta}

group Na type 1
group Cl type 2
group NaSite type 3
group ClSite type 4
group sites union NaSite ClSite
group realatoms subtract all sites

mass 1 22.9898
mass 2 35.4527
mass 3 1.
mass 4 1. 
# types 3, 4 excluded from time-integration so masses are moot

set group Na charge 1.
set group Cl charge -1.
set group sites charge 0

pair_style hybrid/scaled v_et born/coul/dsf 0.25 9.0 v_lam gauss 5.0 
pair_coeff 1 1 born/coul/dsf 0.2637 0.317 2.340 1.048553 -0.49935 # Na-Na
pair_coeff 1 2 born/coul/dsf 0.21096 0.317 2.755 6.99055303 -8.6757 # Cl Na
pair_coeff 2 2 born/coul/dsf 0.158221 0.327 3.170 75.0544 -150.7325 #	Cl-Cl 
pair_coeff * * gauss 0.0 5. 5.0
pair_coeff 1 1 gauss 0.0 5. 5.0
pair_coeff 2 2 gauss 0.0 5. 5.0
pair_coeff 3 3 gauss 0.0 5. 5.0
pair_coeff 4 4 gauss 0.0 5. 5.0
pair_coeff 1 2 gauss 0.0 5. 5.0
pair_coeff 1 4 gauss 0.0 5. 5.0
pair_coeff 2 3 gauss 0.0 5. 5.0
pair_coeff 3 4 gauss 0.0 5. 5.0
pair_coeff 1 3 gauss ${wellDepth} ${invWidth} 5.0 # Na - NaSite interaction
pair_coeff 2 4 gauss ${wellDepth} ${invWidth} 5.0 # Cl - ClSite interaction
pair_modify tail yes

compute fumi all pair born/coul/dsf epair
compute gauss all pair gauss epair 
variable dUdl equal c_gauss
variable nReal equal count(realatoms) 
variable nSites equal count(sites) 
variable nAll equal count(all)
variable tdf equal v_dUdl/v_nReal # don't include tether atoms in normalization

timestep 0.001
velocity realatoms create ${T} 653531
velocity sites create 0. 24346
compute realTemp realatoms temp

thermo 100
thermo_style custom step temp c_realTemp etotal atoms pe vol lx ly lz press v_nReal enthalpy c_fumi c_gauss v_et v_lam v_opp v_tdf fmax
thermo_modify norm no

fix 1 realatoms nvt temp ${T} ${T} $(40*dt)
fix 2 sites setforce 0. 0. 0. # make sure tethers are motionless
run 25000

write_data ${lambda}.tetherOn.data nocoeff



