# create a solid configuration of NNP NaCl atoms at the guessed state point (Tg, P0)

units metal
atom_style charge
boundary p p p

# cation lattice
lattice fcc 5.627
region box block 0 ${size} 0 ${size} 0 ${size}
create_box 2 box
create_atoms 1 box

# anion lattice
lattice fcc 5.627 origin 0.5 0.0 0.0
create_atoms 2 box

group Na type 1
group Cl type 2

mass 1 22.989800
mass 2 35.452700
set group Na charge +1
set group Cl charge -1

pair_style nn
pair_coeff * * ${pot} Na Cl

timestep 0.001
velocity all create ${Tg}. ${seed}

thermo 100
thermo_style custom step pe vol press temp etotal enthalpy
thermo_modify norm no

# equilibrate
log nn_solid.log
fix 0 all npt temp ${Tg}. ${Tg}. $(40.0*dt) iso ${P0}. ${P0}. $(100.0*dt)
run 20000
write_data nn_solid.data nocoeff






