# create a liquid configuration of NNP NaCl at the guessed state point (Tg, P0)


units metal
atom_style charge
boundary p p p

# cation lattice
lattice fcc 5.627
region box block 0 ${size} 0 ${size} 0 ${size}
create_box 2 box
create_atoms 1 box

# anion lattice
lattice fcc 5.627 origin 0.5 0.0 0.0
create_atoms 2 box

group Na type 1
group Cl type 2

mass 1 22.9898
mass 2 35.4527
set group Na charge +1
set group Cl charge -1

pair_style nn
pair_coeff * * ${pot} Na Cl

timestep 0.001
velocity all create 3000. ${seed}

thermo 100
thermo_style custom step pe vol density press temp etotal enthalpy
thermo_modify norm no



# NVT melt, ramp down temperature
fix 0 all nvt temp 3000. ${Tg}. $(40.0*dt) 
run 10000
unfix 0

# NPT equilibrate
reset_timestep 0
log nn_liquid.log
fix 0 all npt temp ${Tg}. ${Tg}. $(40.0*dt) iso ${P0}. ${P0}. $(100.0*dt)
run 20000

write_data nn_liquid.data nocoeff





